============================[ Problem Statistics ]=============================|                                                                             ||  Number of variables:          4242                                         ||  Number of clauses:           10214                                         ||  Parse time:                   0.61 s                                       ||                                                                             |============================[ Search Statistics ]==============================| Conflicts |          ORIGINAL         |          LEARNT          | Progress ||           |    Vars  Clauses Literals |    Limit  Clauses Lit/Cl |          |===============================================================================|       100 |    1591     6419   960030 |     2353      100     53 | 62.501 % ||       250 |    1591     6419   960030 |     2588      250     75 | 62.495 % |===============================================================================restarts              : 3conflicts             : 331            (355 /sec)decisions             : 595            (0.00 % random) (638 /sec)propagations          : 11915          (12771 /sec)conflict literals     : 26614          (94.67 % deleted)CPU time              : 0.933 sSATISFIABLE